Read MPS format model from file dat/rmp/DER_96_16384_57.mps
Reading time = 4.01 seconds
: 16480 rows, 133408 columns, 11529240 nonzeros
Gurobi Optimizer version 9.0.0 build v9.0.0rc2 (linux64)
Optimize a model with 16480 rows, 133408 columns and 11529240 nonzeros
Model fingerprint: 0x5d6f3783
Coefficient statistics:
  Matrix range     [3e-05, 1e+01]
  Objective range  [8e-01, 1e+03]
  Bounds range     [1e+05, 1e+05]
  RHS range        [1e+00, 1e+00]
Ordering time: 0.05s

Barrier statistics:
 AA' NZ     : 1.489e+06
 Factor NZ  : 1.668e+06 (roughly 70 MBytes of memory)
 Factor Ops : 1.746e+08 (less than 1 second per iteration)
 Threads    : 1

                  Objective                Residual
Iter       Primal          Dual         Primal    Dual     Compl     Time
   0   4.54708781e+09 -3.63605488e+08  1.28e+08 2.41e-02  6.79e+05     3s
   1   5.45419765e+07 -4.79464101e+07  1.31e+06 3.64e-12  7.37e+03     3s
   2   5.22474661e+06 -1.28456465e+07  1.21e+05 1.82e-12  7.55e+02     4s
   3   1.50566097e+05 -8.08502272e+06  7.33e+02 3.64e-12  6.49e+01     5s
   4   1.14295160e+05  6.30385716e+04  3.87e-10 3.64e-12  3.84e-01     6s
   5   1.13903196e+05  1.01126549e+05  6.67e-10 3.64e-12  9.57e-02     7s
   6   1.13490961e+05  1.09299900e+05  4.33e-10 3.64e-12  3.14e-02     8s
   7   1.12981789e+05  1.11647736e+05  3.99e-10 3.64e-12  9.99e-03     9s
   8   1.12650556e+05  1.12053610e+05  6.32e-10 7.28e-12  4.47e-03    10s
   9   1.12444898e+05  1.12161713e+05  1.11e-09 5.46e-12  2.12e-03    11s
  10   1.12377321e+05  1.12209685e+05  2.55e-09 3.64e-12  1.26e-03    12s
  11   1.12358828e+05  1.12228777e+05  2.20e-09 3.64e-12  9.74e-04    13s
  12   1.12318352e+05  1.12263183e+05  4.41e-09 3.64e-12  4.13e-04    14s
  13   1.12301589e+05  1.12278330e+05  3.98e-09 1.82e-12  1.74e-04    15s
  14   1.12296683e+05  1.12288463e+05  5.99e-09 5.46e-12  6.16e-05    16s
  15   1.12295029e+05  1.12290008e+05  1.08e-08 3.64e-12  3.76e-05    17s
  16   1.12294350e+05  1.12290652e+05  1.16e-08 3.64e-12  2.77e-05    18s
  17   1.12294034e+05  1.12291040e+05  8.16e-09 1.82e-12  2.24e-05    19s
  18   1.12293514e+05  1.12291488e+05  5.74e-09 1.82e-12  1.52e-05    20s
  19   1.12293101e+05  1.12291809e+05  8.20e-09 1.82e-12  9.67e-06    21s
  20   1.12292832e+05  1.12291892e+05  9.83e-09 1.82e-12  7.04e-06    22s
  21   1.12292647e+05  1.12292052e+05  1.05e-08 1.82e-12  4.46e-06    23s
  22   1.12292502e+05  1.12292136e+05  2.62e-08 2.17e-12  2.74e-06    23s
  23   1.12292428e+05  1.12292186e+05  4.11e-08 1.82e-12  1.81e-06    24s
  24   1.12292367e+05  1.12292202e+05  5.91e-08 1.82e-12  1.24e-06    25s
  25   1.12292336e+05  1.12292226e+05  5.53e-08 1.82e-12  8.28e-07    26s
  26   1.12292312e+05  1.12292232e+05  1.20e-07 3.64e-12  6.02e-07    27s
  27   1.12292294e+05  1.12292241e+05  9.55e-08 1.82e-12  3.94e-07    28s
  28   1.12292283e+05  1.12292246e+05  8.56e-08 1.82e-12  2.73e-07    29s
  29   1.12292271e+05  1.12292253e+05  2.65e-07 3.64e-12  1.34e-07    30s
  30   1.12292264e+05  1.12292257e+05  2.18e-07 3.64e-12  5.27e-08    31s
  31   1.12292259e+05  1.12292258e+05  1.20e-06 3.64e-12  2.00e-09    32s

Barrier solved model in 31 iterations and 31.84 seconds
Optimal objective 1.12292259e+05

Solve time: 31.857362348
Barrier iterations: 31
